Academic license - for non-commercial use only
Optimize a model with 173 rows, 110 columns and 408 nonzeros
Variable types: 10 continuous, 100 integer (100 binary)
Coefficient statistics:
  Matrix range     [1e+00, 1e+06]
  Objective range  [1e+00, 1e+00]
  Bounds range     [1e+00, 1e+00]
  RHS range        [1e+00, 2e+01]
Found heuristic solution: objective 6.0000000
Presolve removed 129 rows and 91 columns
Presolve time: 0.00s
Presolved: 44 rows, 19 columns, 106 nonzeros
Variable types: 10 continuous, 9 integer (9 binary)

Explored 0 nodes (0 simplex iterations) in 0.00 seconds
Thread count was 4 (of 4 available processors)

Solution count 1: 6 

Optimal solution found (tolerance 1.00e-04)
Best objective 6.000000000000e+00, best bound 6.000000000000e+00, gap 0.0000%
value of n:
10
value of card_S:
28
S precedence tuples:
Tuple{Int64,Int64}[(4, 6), (2, 9), (6, 9), (3, 6), (8, 10), (3, 10), (5, 7), (2, 8), (1, 8), (7, 9), (4, 8), (7, 8), (4, 10), (5, 9), (4, 7), (5, 6), (9, 10), (6, 8), (4, 5), (2, 5), (3, 7), (2, 3), (4, 9), (2, 10), (6, 7), (6, 10), (1, 5), (2, 6)]
values of t:
[1, 1, 3, 8, 3, 7, 8, 10, 3, 3]
values of d:
[7, 13, 3, 13, 18, 20, 8, 13, 19, 9]
========================================================================
Solução ótima encontrada.
Número de nós explorados: 0
Melhor limitante dual: 6.00
Melhor limitante primal: 6.00
Gap de otimalidade: 0.00
Tempo de execução: 0.00
